
Gurobi 6.5.2 (linux64) logging started Mon Dec 12 22:09:09 2016


Gurobi 6.5.2 (linux64) logging started Mon Dec 12 22:09:09 2016

Optimize a model with 101 rows, 418 columns and 903 nonzeros
Coefficient statistics:
  Matrix range    [1e+00, 2e+00]
  Objective range [2e+00, 1e+02]
  Bounds range    [1e+00, 1e+00]
  RHS range       [1e+00, 1e+00]
Presolve removed 31 rows and 12 columns
Presolve time: 0.00s
Presolved: 70 rows, 406 columns, 825 nonzeros
Variable types: 0 continuous, 406 integer (406 binary)
Found heuristic solution: objective 1034.0000000

Root relaxation: objective 8.332500e+02, 68 iterations, 0.00 seconds

    Nodes    |    Current Node    |     Objective Bounds      |     Work
 Expl Unexpl |  Obj  Depth IntInf | Incumbent    BestBd   Gap | It/Node Time

     0     0  833.25000    0   18 1034.00000  833.25000  19.4%     -    0s
H    0     0                     990.0000000  833.25000  15.8%     -    0s
     0     0  897.50000    0    9  990.00000  897.50000  9.34%     -    0s
H    0     0                     987.0000000  897.50000  9.07%     -    0s
H    0     0                     980.0000000  897.50000  8.42%     -    0s
     0     0  900.33333    0   18  980.00000  900.33333  8.13%     -    0s
H    0     0                     906.0000000  900.33333  0.63%     -    0s
     0     0  903.25000    0    6  906.00000  903.25000  0.30%     -    0s
     0     0  903.50000    0   20  906.00000  903.50000  0.28%     -    0s
     0     0  904.00000    0    5  906.00000  904.00000  0.22%     -    0s

Cutting planes:
  Gomory: 1
  Lazy constraints: 1

Explored 0 nodes (124 simplex iterations) in 0.02 seconds
Thread count was 8 (of 8 available processors)

Optimal solution found (tolerance 1.00e-04)
Best objective 9.060000000000e+02, best bound 9.060000000000e+02, gap 0.0%
